0001 1
0002 1
0003 1
0004 1
0005 1
0006 1
0007 2
0008 2
0009 2
0010 2
0011 2
0012 2
0013 2
0014 2
0015 2
0016 2
0017 1
0018 2
0019 2
0020 2
0021 2
0022 2
0023 2
0024 2
0025 2
0026 2
0027 3
0028 2
0029 2
0030 2
0031 3
0032 3
0033 3
0034 3
0035 3
0036 3
0037 3
0038 2
0039 3
0040 3
0041 3
0042 3
0043 4
0044 5
0045 5
0046 5
0047 5
0048 2
0049 3
0050 3
0051 5
0052 5
0053 5
0054 5
0055 5
0056 5
0057 5
0058 3
0059 5
0060 5
0061 5
0062 5
0063 5
0064 5
0065 5
0066 5
0067 6
0068 5
0069 5
0070 5
0071 6
0072 6
0073 6
0074 6
0075 6
0076 6
0077 5
0078 6
0079 6
0080 7
0081 8
0082 8
0083 8
0084 8
0085 5
0086 8
0087 8
0088 8
0089 8
0090 8
0091 8
0092 8
0093 8
0094 8
0095 8
0096 8
0097 9
0098 9
0099 9
0100 8
0101 9
0102 9
0103 8
0104 9
0105 9
0106 9
0107 10
0108 11
0109 9
0110 11
0111 11
0112 8
0113 8
0114 8
0115 11
0116 11
0117 11
0118 11
0119 11
0120 8
0121 11
0122 11
0123 11
0124 12
0125 12
0126 12
0127 12
0128 12
0129 12
0130 12
0131 11
0132 12
0133 13
0134 12
0135 12
0136 13
0137 13
0138 13
0139 13
